decision_x1=[0,2];
decision_x2=[0,2];
decision_x3=[0,2];
decision_x4=[0,2];
decision_x5=[0,2];
decision_x6=[0,2];
decision_x7=[0,2];
decision_x8=[0,2];
decision_x9=[0,2];
decision_x10=[0,2];
random_y1=[0,2];
random_y2=[0,2];
constraint_x3_x2=[
0,1,6|
0,2,0.71|
1,0,3.7|
1,2,8.5|
2,0,1.2|
2,1,2.7|
];
constraint_x4_x2=[
0,1,6.5|
0,2,5.1|
1,0,8.3|
1,2,1.6|
2,0,9.8|
2,1,5.7|
];
constraint_x4_x3=[
0,1,0.71|
0,2,7.5|
1,0,5.7|
1,2,5.2|
2,0,5.4|
2,1,7.8|
];
constraint_x5_x1=[
0,1,2.4|
0,2,3.9|
1,0,3.3|
1,2,0.41|
2,0,9.3|
2,1,7.5|
];
constraint_x5_x3=[
0,1,9.8|
0,2,8.6|
1,0,8|
1,2,7.8|
2,0,6.8|
2,1,9.2|
];
constraint_x6_x3=[
0,1,1.7|
0,2,7.5|
1,0,3.8|
1,2,7.5|
2,0,2.8|
2,1,8.9|
];
constraint_x6_x4=[
0,1,0.76|
0,2,2.1|
1,0,5.8|
1,2,3.6|
2,0,9.2|
2,1,3.9|
];
constraint_x7_x2=[
0,1,9.8|
0,2,5.1|
1,0,7.7|
1,2,2.1|
2,0,4.8|
2,1,4|
];
constraint_x7_x3=[
0,1,3.4|
0,2,6.8|
1,0,7.2|
1,2,5.7|
2,0,2.9|
2,1,5.5|
];
constraint_x7_x4=[
0,1,7.5|
0,2,4.2|
1,0,8.5|
1,2,2.8|
2,0,9.7|
2,1,3.6|
];
constraint_x7_x5=[
0,1,7.5|
0,2,7.1|
1,0,0.8|
1,2,6.1|
2,0,8|
2,1,2.1|
];
constraint_x8_x1=[
0,1,9.1|
0,2,8.3|
1,0,6.1|
1,2,8.6|
2,0,6.4|
2,1,2.6|
];
constraint_x8_x3=[
0,1,0.49|
0,2,1.6|
1,0,8.5|
1,2,4.8|
2,0,9.8|
2,1,0.9|
];
constraint_x8_x5=[
0,1,6.6|
0,2,4.3|
1,0,8.4|
1,2,5.3|
2,0,2.5|
2,1,4.9|
];
constraint_x8_x6=[
0,1,9|
0,2,9.2|
1,0,8.2|
1,2,4.9|
2,0,4.5|
2,1,1.5|
];
constraint_x8_x7=[
0,1,4|
0,2,7.4|
1,0,6.5|
1,2,6|
2,0,2.3|
2,1,7.1|
];
constraint_x9_x1=[
0,1,1.9|
0,2,3.2|
1,0,3|
1,2,0.4|
2,0,6|
2,1,2.3|
];
constraint_x9_x4=[
0,1,3.3|
0,2,2.1|
1,0,5.4|
1,2,7.2|
2,0,5.2|
2,1,0.27|
];
constraint_x9_x5=[
0,1,6.1|
0,2,0.63|
1,0,4.8|
1,2,9.1|
2,0,8.7|
2,1,7.2|
];
constraint_x10_x2=[
0,1,3|
0,2,3.4|
1,0,4.9|
1,2,3.4|
2,0,8.4|
2,1,1.4|
];
constraint_x10_x3=[
0,1,2.1|
0,2,6.2|
1,0,0.83|
1,2,8.3|
2,0,9.5|
2,1,2|
];
constraint_x10_x4=[
0,1,3.2|
0,2,3.9|
1,0,3.3|
1,2,5.6|
2,0,4|
2,1,8.5|
];
constraint_x10_x8=[
0,1,5.2|
0,2,1.8|
1,0,2.3|
1,2,7.4|
2,0,1.3|
2,1,5.2|
];
constraint_x1_y1=[
0,0,7.2|
0,1,2.7|
0,2,4.4|
1,0,8.7|
1,1,2|
1,2,6.8|
2,0,0.76|
2,1,4.9|
2,2,9|
];
constraint_x2_y2=[
0,0,8.5|
0,1,3.2|
0,2,3.3|
1,0,8.2|
1,1,5.7|
1,2,9.3|
2,0,9|
2,1,3.6|
2,2,4.5|
];
initial_distribution_y1=[0.23,0.56,0.21];
initial_distribution_y2=[0.4,0.39,0.21];
transition_y1=[
0.5,0.062,0.43|
0.28,0.28,0.44|
0.19,0.28,0.53|
];
transition_y2=[
0.27,0.31,0.41|
0.23,0.37,0.4|
0.27,0.36,0.37|
];
